10J3M/DAT/10J3MULL-11.dat
10 3
18.9082 18.9082
33.0091 33.0091
16.0419 16.0419
37.7939 37.7939
13.3972 13.3972
33.9083 33.9083
6.596 6.596
26.9238 26.9238
48.7357 48.7357
13.1325 13.1325
82.8155